Route #1: 42 2 45 93 57 91 134 83 27 60 74 77 32 47 34 79 64 76 49 25 28 85 92 40 51 62 
Route #2: 63 59 87 36 98 29 94 19 117 128 129 116 122 126 124 113 110 132 133 
Route #3: 50 104 43 101 99 100 11 7 9 5 88 12 3 15 6 56 96 44 48 108 107 109 120 115 
Route #4: 1 84 95 55 54 102 52 26 97 105 89 86 103 4 8 39 90 16 37 14 41 10 
Route #5: 17 69 68 18 31 30 58 13 72 65 33 35 38 53 22 
Route #6: 46 66 119 114 131 106 111 81 130 
Route #7: 23 73 21 80 67 20 61 24 75 82 78 70 118 71 127 123 112 121 125 
cost 1768
execution_time 53.509
